data/solutions/recovery/wellformed/moderate/binding/wellformed_moderate_instance11/31.sol
Elapsed time: 0.01
Upper bound: 11494.0
Planning weighted value: 74539.0
C[0]=11494.0
C[1]=11170.0
C[2]=10808.0
y[0]=2
y[1]=2
y[2]=2
y[3]=0
y[4]=2
y[5]=2
y[6]=1
y[7]=0
y[8]=1
y[9]=1
y[10]=2
y[11]=2
y[12]=2
y[13]=1
y[14]=1
y[15]=0
y[16]=1
y[17]=0
y[18]=0
y[19]=0
y[20]=0
y[21]=0
y[22]=1
y[23]=2
y[24]=0
y[25]=1
y[26]=0
y[27]=0
y[28]=0
y[29]=1
y[30]=0
y[31]=2
y[32]=2
