data/solutions/recovery/wellformed/moderate/binding/wellformed_moderate_instance11/31.log

Log started (V12.6.3.0) Fri Apr 20 17:49:50 2018

New value for default parallel thread count: 1

Problem '/tmp/tmpBlv7IR.pyomo.lp' read.
Read time = 0.00 sec. (0.03 ticks)

Problem name         : /tmp/tmpBlv7IR.pyomo.lp
Objective sense      : Minimize
Variables            :     104  [Nneg: 1,  Binary: 99,  General Integer: 4]
Objective nonzeros   :       1
Linear constraints   :      73  [Less: 36,  Equal: 37]
  Nonzeros           :    2185
  RHS nonzeros       :      34

Variables            : Min LB: 0.000000         Max UB: 1.000000       
Objective nonzeros   : Min   : 1.000000         Max   : 1.000000       
Linear constraints   :
  Nonzeros           : Min   : 1.000000         Max   : 1950.000       
  RHS nonzeros       : Min   : 1.000000         Max   : 1.000000       
Tried aggregator 2 times.
MIP Presolve eliminated 64 rows and 91 columns.
MIP Presolve modified 4 coefficients.
Aggregator did 3 substitutions.
Reduced MIP has 6 rows, 10 columns, and 21 nonzeros.
Reduced MIP has 9 binaries, 1 generals, 0 SOSs, and 0 indicators.
Presolve time = 0.00 sec. (0.20 ticks)
Found incumbent of value 13227.000000 after 0.00 sec. (0.26 ticks)
Probing time = 0.00 sec. (0.00 ticks)
Tried aggregator 1 time.
Reduced MIP has 6 rows, 10 columns, and 21 nonzeros.
Reduced MIP has 9 binaries, 1 generals, 0 SOSs, and 0 indicators.
Presolve time = 0.00 sec. (0.01 ticks)
Probing time = 0.00 sec. (0.00 ticks)
Clique table members: 3.
MIP emphasis: balance optimality and feasibility.
MIP search method: dynamic search.
Parallel mode: none, using 1 thread.
Root relaxation solution time = 0.00 sec. (0.01 ticks)

        Nodes                                         Cuts/
   Node  Left     Objective  IInf  Best Integer    Best Bound    ItCnt     Gap

*     0+    0                        13227.0000    11170.0000            15.55%
      0     0    11247.9262     4    13227.0000    11247.9262        5   14.96%
*     0+    0                        11521.0000    11247.9262             2.37%
*     0     0      integral     0    11494.0000       Cuts: 7       13    0.00%
      0     0        cutoff          11494.0000    11494.0000       13    0.00%
Elapsed time = 0.00 sec. (0.38 ticks, tree = 0.01 MB, solutions = 3)

Implied bound cuts applied:  2
Mixed integer rounding cuts applied:  1
Gomory fractional cuts applied:  1

Root node processing (before b&c):
  Real time             =    0.00 sec. (0.38 ticks)
Sequential b&c:
  Real time             =    0.00 sec. (0.00 ticks)
                          ------------
Total (root+branch&cut) =    0.00 sec. (0.38 ticks)

Solution pool: 3 solutions saved.

MIP - Integer optimal solution:  Objective =  1.1494000000e+04
Solution time =    0.00 sec.  Iterations = 13  Nodes = 0
Deterministic time = 0.38 ticks  (142.84 ticks/sec)


Incumbent solution written to file '/tmp/tmprjVCpt.cplex.sol'.

Log started (V12.6.3.0) Fri Apr 20 17:52:53 2018

New value for default parallel thread count: 1

Problem '/tmp/tmpr2DrZk.pyomo.lp' read.
Read time = 0.00 sec. (0.03 ticks)

Problem name         : /tmp/tmpr2DrZk.pyomo.lp
Objective sense      : Minimize
Variables            :     104  [Nneg: 1,  Binary: 99,  General Integer: 4]
Objective nonzeros   :       1
Linear constraints   :      73  [Less: 36,  Equal: 37]
  Nonzeros           :    2185
  RHS nonzeros       :      34

Variables            : Min LB: 0.000000         Max UB: 1.000000       
Objective nonzeros   : Min   : 1.000000         Max   : 1.000000       
Linear constraints   :
  Nonzeros           : Min   : 1.000000         Max   : 1950.000       
  RHS nonzeros       : Min   : 1.000000         Max   : 1.000000       
Tried aggregator 2 times.
MIP Presolve eliminated 64 rows and 91 columns.
MIP Presolve modified 4 coefficients.
Aggregator did 3 substitutions.
Reduced MIP has 6 rows, 10 columns, and 21 nonzeros.
Reduced MIP has 9 binaries, 1 generals, 0 SOSs, and 0 indicators.
Presolve time = 0.00 sec. (0.20 ticks)
Found incumbent of value 13227.000000 after 0.00 sec. (0.26 ticks)
Probing time = 0.00 sec. (0.00 ticks)
Tried aggregator 1 time.
Reduced MIP has 6 rows, 10 columns, and 21 nonzeros.
Reduced MIP has 9 binaries, 1 generals, 0 SOSs, and 0 indicators.
Presolve time = 0.00 sec. (0.01 ticks)
Probing time = 0.00 sec. (0.00 ticks)
Clique table members: 3.
MIP emphasis: balance optimality and feasibility.
MIP search method: dynamic search.
Parallel mode: none, using 1 thread.
Root relaxation solution time = 0.00 sec. (0.01 ticks)

        Nodes                                         Cuts/
   Node  Left     Objective  IInf  Best Integer    Best Bound    ItCnt     Gap

*     0+    0                        13227.0000    11170.0000            15.55%
      0     0    11247.9262     4    13227.0000    11247.9262        5   14.96%
*     0+    0                        11521.0000    11247.9262             2.37%
*     0     0      integral     0    11494.0000       Cuts: 7       13    0.00%
      0     0        cutoff          11494.0000    11494.0000       13    0.00%
Elapsed time = 0.00 sec. (0.38 ticks, tree = 0.01 MB, solutions = 3)

Implied bound cuts applied:  2
Mixed integer rounding cuts applied:  1
Gomory fractional cuts applied:  1

Root node processing (before b&c):
  Real time             =    0.00 sec. (0.38 ticks)
Sequential b&c:
  Real time             =    0.00 sec. (0.00 ticks)
                          ------------
Total (root+branch&cut) =    0.00 sec. (0.38 ticks)

Solution pool: 3 solutions saved.

MIP - Integer optimal solution:  Objective =  1.1494000000e+04
Solution time =    0.00 sec.  Iterations = 13  Nodes = 0
Deterministic time = 0.38 ticks  (140.82 ticks/sec)


Incumbent solution written to file '/tmp/tmpObpIQL.cplex.sol'.
